21° run output:
{
    "Function": "euclidA300.tsp",
    "Problem dimension": [
        71,
        241,
        131,
        12,
        123,
        180,
        176,
        11,
        141,
        62,
        116,
        90,
        108,
        102,
        82,
        233,
        145,
        89,
        170,
        285,
        28,
        156,
        92,
        38,
        158,
        75,
        234,
        73,
        99,
        41,
        47,
        76,
        222,
        9,
        277,
        65,
        185,
        70,
        142,
        270,
        200,
        113,
        121,
        8,
        248,
        136,
        177,
        109,
        111,
        193,
        118,
        276,
        10,
        181,
        74,
        64,
        254,
        94,
        45,
        273,
        271,
        78,
        79,
        151,
        152,
        3,
        87,
        213,
        20,
        137,
        255,
        299,
        280,
        42,
        211,
        218,
        266,
        154,
        215,
        100,
        164,
        236,
        55,
        292,
        294,
        278,
        50,
        56,
        140,
        221,
        228,
        269,
        205,
        251,
        57,
        104,
        147,
        238,
        120,
        43,
        199,
        148,
        210,
        188,
        194,
        23,
        196,
        226,
        52,
        84,
        207,
        139,
        150,
        24,
        240,
        298,
        39,
        5,
        48,
        91,
        287,
        77,
        30,
        230,
        46,
        161,
        44,
        237,
        190,
        268,
        295,
        206,
        85,
        98,
        224,
        129,
        208,
        163,
        182,
        22,
        6,
        112,
        282,
        119,
        126,
        1,
        184,
        220,
        244,
        201,
        14,
        114,
        209,
        297,
        198,
        146,
        80,
        217,
        37,
        86,
        53,
        103,
        66,
        253,
        29,
        262,
        260,
        245,
        13,
        36,
        31,
        144,
        93,
        225,
        0,
        153,
        101,
        258,
        19,
        124,
        17,
        203,
        296,
        283,
        243,
        143,
        110,
        155,
        2,
        106,
        135,
        7,
        183,
        167,
        27,
        169,
        227,
        26,
        247,
        69,
        34,
        134,
        96,
        165,
        72,
        242,
        83,
        261,
        128,
        59,
        166,
        160,
        192,
        216,
        288,
        21,
        149,
        67,
        168,
        58,
        259,
        275,
        265,
        88,
        291,
        117,
        35,
        279,
        263,
        272,
        51,
        115,
        219,
        173,
        189,
        63,
        162,
        249,
        107,
        25,
        214,
        122,
        16,
        239,
        68,
        250,
        257,
        256,
        18,
        130,
        212,
        186,
        235,
        157,
        267,
        61,
        32,
        293,
        127,
        132,
        54,
        81,
        40,
        232,
        197,
        187,
        231,
        274,
        178,
        202,
        175,
        133,
        289,
        284,
        60,
        223,
        125,
        95,
        15,
        246,
        97,
        174,
        229,
        281,
        264,
        286,
        204,
        159,
        172,
        138,
        252,
        179,
        33,
        290,
        4,
        105,
        49,
        191,
        171,
        195
    ],
    "Global Optimum": 0,
    "Algorithm": "Genetic algorithm",
    "Parameters": {
        "population": 30,
        "offspring": 30,
        "mutation probability": 0.0033333333333333335,
        "crossover probability": 0.9
    },
    "Fitness": 284975,
    "Solution": [
        71,
        241,
        131,
        12,
        123,
        180,
        176,
        11,
        141,
        62,
        116,
        90,
        108,
        102,
        82,
        233,
        145,
        89,
        170,
        285,
        28,
        156,
        92,
        38,
        158,
        75,
        234,
        73,
        99,
        41,
        47,
        76,
        222,
        9,
        277,
        65,
        185,
        70,
        142,
        270,
        200,
        113,
        121,
        8,
        248,
        136,
        177,
        109,
        111,
        193,
        118,
        276,
        10,
        181,
        74,
        64,
        254,
        94,
        45,
        273,
        271,
        78,
        79,
        151,
        152,
        3,
        87,
        213,
        20,
        137,
        255,
        299,
        280,
        42,
        211,
        218,
        266,
        154,
        215,
        100,
        164,
        236,
        55,
        292,
        294,
        278,
        50,
        56,
        140,
        221,
        228,
        269,
        205,
        251,
        57,
        104,
        147,
        238,
        120,
        43,
        199,
        148,
        210,
        188,
        194,
        23,
        196,
        226,
        52,
        84,
        207,
        139,
        150,
        24,
        240,
        298,
        39,
        5,
        48,
        91,
        287,
        77,
        30,
        230,
        46,
        161,
        44,
        237,
        190,
        268,
        295,
        206,
        85,
        98,
        224,
        129,
        208,
        163,
        182,
        22,
        6,
        112,
        282,
        119,
        126,
        1,
        184,
        220,
        244,
        201,
        14,
        114,
        209,
        297,
        198,
        146,
        80,
        217,
        37,
        86,
        53,
        103,
        66,
        253,
        29,
        262,
        260,
        245,
        13,
        36,
        31,
        144,
        93,
        225,
        0,
        153,
        101,
        258,
        19,
        124,
        17,
        203,
        296,
        283,
        243,
        143,
        110,
        155,
        2,
        106,
        135,
        7,
        183,
        167,
        27,
        169,
        227,
        26,
        247,
        69,
        34,
        134,
        96,
        165,
        72,
        242,
        83,
        261,
        128,
        59,
        166,
        160,
        192,
        216,
        288,
        21,
        149,
        67,
        168,
        58,
        259,
        275,
        265,
        88,
        291,
        117,
        35,
        279,
        263,
        272,
        51,
        115,
        219,
        173,
        189,
        63,
        162,
        249,
        107,
        25,
        214,
        122,
        16,
        239,
        68,
        250,
        257,
        256,
        18,
        130,
        212,
        186,
        235,
        157,
        267,
        61,
        32,
        293,
        127,
        132,
        54,
        81,
        40,
        232,
        197,
        187,
        231,
        274,
        178,
        202,
        175,
        133,
        289,
        284,
        60,
        223,
        125,
        95,
        15,
        246,
        97,
        174,
        229,
        281,
        264,
        286,
        204,
        159,
        172,
        138,
        252,
        179,
        33,
        290,
        4,
        105,
        49,
        191,
        171,
        195
    ],
    "Nb of functions evaluations": 400020,
    "Computational time in seconds": 690.616375207901,
    "Stopping criterion in evaluations": 400000
}